unused/nursingWorkload/2zones9.param
language ESSENCE' 1.0

letting numZones = 2
letting numNurses = 8
letting minNumPatientsPerNurse = 1
letting maxNumPatientsPerNurse = 3
letting maxWorkloadPerNurse = 105
$ letting zonePatientAcuity = [[49, 43, 41, 40, 40,35,30], 
$                             [47, 44, 36, 35,32,30,29]]
$ letting numZonePatients = [7, 7]
letting zonePatientAcuity = [[49, 43, 41, 40, 40, 35, 30, 26, 20, 14], 
                            [47, 44, 36, 35, 32, 30, 29, 29, 24, 24]]
letting numZonePatients = [10, 10]
